55 150 59 90 24 135 17 128 100 117 183 68 51 18 97 10 162 85 25 168 31 178 118 69 12 95 54 49 148 143 154 170 76 91 53 20 137 88 73 46 56 66 131 158 44 106 72 167 23 83 80 180 166 123 28 94 34 173 125 63 111 140 27 21 30 78 177 57 104 145 197 181 196 82 192 159 89 14 112 163 93 16 115 119 2 45 96 155 1 58 185 48 175 67 47 19 11 136 116 149 156 139 107 102 171 122 151 7 169 43 15 98 41 190 161 22 124 176 65 37 42 86 146 153 8 165 36 164 121 133 134 40 70 114 50 5 52 113 71 195 157 87 144 0 127 101 105 77 129 110 60 187 99 39 188 33 74 174 193 64 142 172 160 3 84 120 179 4 92 130 62 75 109 108 199 81 38 141 79 191 9 32 126 198 6 61 138 132 189 26 29 194 147 152 13 103 182 184 186 35 

